54
45
44
34
43
42
33
32
41
38
47
46
55
56
57
58
59
60
51
52
53
72
81
80
71
70
69
78
77
84
83
82
91
92
93
94
95
87
88
79
89
90
99
98
97
96
86
85
76
75
73
74
64
65
66
67
68
50
40
29
37
28
19
20
11
12
3
2
10
1
4
14
5
6
7
8
9
18
17
27
36
35
26
25
24
16
15
23
13
22
21
30
31
39
48
49
61
62
63
54
